c Random generated cnf formula, satisfiable: false
p cnf 10 50
3 -7 -9 0
-10 9 1 0
10 -4 -6 0
-3 -7 -2 0
2 1 9 0
3 -7 2 0
7 -10 -8 0
5 -7 9 0
2 -9 -7 0
6 3 2 0
7 -6 9 0
-3 10 4 0
5 -1 -3 0
4 -6 -7 0
-10 2 -8 0
-1 -8 2 0
8 -4 1 0
-6 -9 2 0
7 -9 6 0
9 4 7 0
9 -2 10 0
-4 5 -1 0
2 -10 -7 0
-1 9 -10 0
7 -8 -3 0
-4 5 7 0
10 -6 -9 0
-2 1 3 0
-10 -7 3 0
-5 -8 -10 0
-8 1 7 0
-10 9 -8 0
-9 3 -6 0
-8 6 1 0
5 -4 3 0
-6 10 3 0
8 -7 -6 0
3 -7 -2 0
9 6 -8 0
8 -6 3 0
4 7 10 0
-5 1 -7 0
-3 -10 7 0
3 10 2 0
9 -8 -2 0
8 1 -7 0
-1 9 7 0
-9 -7 -6 0
4 10 9 0
-5 2 8 0
